20  5
  0  46  1  76  2  39  3  48  4  46
  0  70  1  88  2  32  3  45  4  86
  0  31  1  21  2  52  3  90  4  76
  0  45  1  6  2  39  3  97  4  84
  0  31  1  37  2  62  3  2  4  76
  0  69  1  51  2  6  3  31  4  97
  0  59  1  7  2  92  3  19  4  54
  0  26  1  19  2  39  3  73  4  71
  0  86  1  6  2  43  3  90  4  57
  0  99  1  77  2  56  3  86  4  91
  0  88  1  51  2  68  3  89  4  3
  0  63  1  84  2  61  3  83  4  3
  0  76  1  92  2  77  3  89  4  2
  0  9  1  66  2  95  3  22  4  87
  0  78  1  32  2  21  3  27  4  73
  0  95  1  74  2  56  3  34  4  53
  0  8  1  99  2  19  3  96  4  13
  0  18  1  42  2  2  3  12  4  12
  0  11  1  96  2  92  3  51  4  24
  0  88  1  47  2  53  3  1  4  30
